NAME : 	X-n439-k37	
COMMENT : 	"Generated by Uchoa, Pecin, Pessoa, Poggi, Subramanian, and Vidal (2013)"	
TYPE : 	CVRP	
DIMENSION : 	439	
EDGE_WEIGHT_TYPE : 	EUC_2D	
CAPACITY : 	12	
NODE_COORD_SECTION		
1	500	500
2	769	259
3	91	377
4	108	338
5	816	567
6	698	341
7	741	237
8	601	140
9	63	359
10	215	608
11	979	914
12	911	697
13	440	593
14	922	765
15	185	756
16	486	158
17	993	628
18	241	33
19	200	756
20	856	440
21	471	712
22	929	649
23	811	44
24	125	727
25	830	484
26	568	366
27	261	394
28	478	965
29	726	474
30	68	952
31	747	716
32	678	366
33	17	603
34	169	689
35	916	565
36	564	913
37	268	681
38	937	878
39	370	634
40	555	847
41	246	911
42	267	333
43	166	257
44	147	179
45	418	383
46	382	886
47	312	911
48	416	186
49	457	582
50	334	882
51	269	710
52	513	910
53	739	882
54	503	682
55	451	911
56	171	656
57	843	44
58	94	165
59	726	411
60	197	498
61	49	726
62	645	224
63	915	247
64	981	775
65	844	973
66	519	268
67	291	97
68	986	589
69	414	719
70	407	720
71	82	782
72	255	312
73	151	291
74	831	520
75	970	760
76	912	77
77	150	909
78	638	624
79	585	630
80	655	287
81	708	178
82	503	504
83	14	634
84	261	106
85	825	599
86	433	646
87	298	153
88	88	970
89	704	58
90	258	52
91	930	209
92	570	72
93	252	338
94	141	741
95	353	966
96	718	880
97	581	608
98	69	246
99	469	225
100	623	619
101	501	929
102	359	117
103	128	931
104	953	786
105	30	752
106	157	419
107	637	668
108	454	640
109	888	420
110	937	231
111	252	161
112	453	708
113	995	666
114	998	151
115	687	778
116	350	281
117	977	113
118	970	790
119	604	21
120	128	917
121	664	777
122	310	275
123	122	40
124	846	937
125	586	561
126	806	751
127	312	123
128	139	930
129	479	760
130	69	875
131	698	197
132	726	250
133	782	561
134	43	320
135	757	331
136	898	518
137	133	541
138	497	279
139	418	234
140	25	118
141	880	166
142	529	957
143	565	758
144	60	701
145	567	295
146	66	72
147	535	391
148	30	683
149	447	677
150	362	365
151	618	766
152	540	747
153	972	449
154	500	86
155	555	154
156	275	341
157	299	644
158	890	504
159	42	970
160	496	177
161	789	679
162	770	402
163	229	264
164	545	735
165	504	867
166	708	580
167	218	232
168	339	760
169	710	910
170	99	352
171	564	708
172	875	761
173	376	398
174	667	49
175	774	666
176	728	515
177	676	316
178	961	518
179	811	724
180	551	563
181	484	538
182	862	621
183	589	636
184	574	712
185	879	326
186	77	733
187	476	800
188	107	535
189	643	837
190	642	249
191	793	754
192	37	871
193	760	614
194	420	78
195	312	676
196	329	322
197	919	95
198	605	144
199	763	884
200	528	760
201	9	106
202	214	887
203	323	338
204	253	819
205	628	365
206	597	761
207	128	138
208	705	400
209	571	979
210	931	739
211	764	26
212	162	169
213	338	947
214	718	807
215	769	882
216	480	60
217	635	657
218	292	467
219	136	228
220	593	769
221	866	390
222	313	239
223	813	727
224	12	260
225	642	817
226	271	154
227	196	682
228	330	261
229	250	283
230	358	273
231	950	598
232	244	524
233	583	858
234	388	295
235	677	853
236	748	608
237	254	471
238	301	270
239	115	623
240	159	246
241	900	400
242	298	216
243	313	219
244	393	252
245	847	676
246	271	197
247	429	275
248	281	865
249	842	436
250	320	268
251	232	202
252	503	302
253	362	128
254	385	201
255	222	615
256	952	426
257	589	627
258	400	209
259	141	757
260	730	710
261	242	378
262	175	791
263	194	777
264	190	651
265	312	187
266	730	646
267	366	181
268	50	248
269	353	270
270	652	784
271	306	316
272	390	185
273	767	916
274	648	820
275	950	134
276	259	336
277	218	666
278	405	778
279	176	687
280	687	796
281	288	233
282	164	230
283	631	800
284	475	364
285	644	787
286	387	115
287	430	195
288	844	347
289	159	665
290	385	195
291	777	779
292	784	688
293	802	671
294	273	68
295	115	719
296	201	591
297	126	178
298	328	138
299	170	673
300	43	227
301	761	811
302	964	859
303	949	412
304	282	187
305	645	937
306	88	608
307	469	662
308	194	760
309	307	322
310	364	163
311	814	726
312	44	357
313	249	222
314	754	663
315	457	666
316	302	159
317	685	772
318	224	678
319	119	717
320	362	172
321	660	817
322	392	252
323	611	940
324	421	282
325	360	280
326	312	272
327	359	422
328	930	449
329	727	839
330	362	174
331	865	435
332	865	403
333	652	771
334	640	408
335	574	311
336	205	298
337	634	902
338	323	219
339	378	170
340	290	86
341	904	421
342	439	192
343	315	230
344	899	450
345	623	138
346	230	220
347	246	268
348	155	167
349	164	337
350	23	271
351	432	202
352	364	194
353	296	166
354	347	322
355	943	753
356	206	641
357	795	780
358	796	849
359	196	585
360	189	611
361	306	225
362	818	409
363	95	550
364	792	819
365	727	707
366	190	624
367	161	32
368	739	302
369	769	778
370	631	849
371	68	320
372	952	269
373	315	199
374	193	734
375	605	969
376	130	185
377	418	214
378	326	236
379	978	671
380	952	836
381	344	269
382	270	271
383	771	647
384	397	238
385	196	8
386	238	225
387	49	245
388	826	339
389	266	151
390	914	448
391	878	317
392	332	208
393	68	190
394	298	259
395	883	786
396	865	354
397	356	215
398	839	318
399	243	672
400	652	671
401	66	242
402	668	495
403	343	94
404	215	0
405	269	280
406	676	898
407	282	320
408	185	62
409	994	368
410	251	159
411	56	273
412	133	311
413	239	64
414	376	228
415	378	491
416	252	657
417	182	66
418	748	760
419	154	103
420	656	923
421	361	224
422	230	160
423	363	344
424	337	211
425	749	800
426	1	293
427	729	319
428	285	650
429	331	10
430	199	630
431	781	445
432	590	258
433	364	204
434	324	224
435	56	412
436	208	238
437	197	739
438	455	395
439	242	222
DEMAND_SECTION		
1	0	
2	1
3	1
4	1
5	1
6	1
7	1
8	1
9	1
10	1
11	1
12	1
13	1
14	1
15	1
16	1
17	1
18	1
19	1
20	1
21	1
22	1
23	1
24	1
25	1
26	1
27	1
28	1
29	1
30	1
31	1
32	1
33	1
34	1
35	1
36	1
37	1
38	1
39	1
40	1
41	1
42	1
43	1
44	1
45	1
46	1
47	1
48	1
49	1
50	1
51	1
52	1
53	1
54	1
55	1
56	1
57	1
58	1
59	1
60	1
61	1
62	1
63	1
64	1
65	1
66	1
67	1
68	1
69	1
70	1
71	1
72	1
73	1
74	1
75	1
76	1
77	1
78	1
79	1
80	1
81	1
82	1
83	1
84	1
85	1
86	1
87	1
88	1
89	1
90	1
91	1
92	1
93	1
94	1
95	1
96	1
97	1
98	1
99	1
100	1
101	1
102	1
103	1
104	1
105	1
106	1
107	1
108	1
109	1
110	1
111	1
112	1
113	1
114	1
115	1
116	1
117	1
118	1
119	1
120	1
121	1
122	1
123	1
124	1
125	1
126	1
127	1
128	1
129	1
130	1
131	1
132	1
133	1
134	1
135	1
136	1
137	1
138	1
139	1
140	1
141	1
142	1
143	1
144	1
145	1
146	1
147	1
148	1
149	1
150	1
151	1
152	1
153	1
154	1
155	1
156	1
157	1
158	1
159	1
160	1
161	1
162	1
163	1
164	1
165	1
166	1
167	1
168	1
169	1
170	1
171	1
172	1
173	1
174	1
175	1
176	1
177	1
178	1
179	1
180	1
181	1
182	1
183	1
184	1
185	1
186	1
187	1
188	1
189	1
190	1
191	1
192	1
193	1
194	1
195	1
196	1
197	1
198	1
199	1
200	1
201	1
202	1
203	1
204	1
205	1
206	1
207	1
208	1
209	1
210	1
211	1
212	1
213	1
214	1
215	1
216	1
217	1
218	1
219	1
220	1
221	1
222	1
223	1
224	1
225	1
226	1
227	1
228	1
229	1
230	1
231	1
232	1
233	1
234	1
235	1
236	1
237	1
238	1
239	1
240	1
241	1
242	1
243	1
244	1
245	1
246	1
247	1
248	1
249	1
250	1
251	1
252	1
253	1
254	1
255	1
256	1
257	1
258	1
259	1
260	1
261	1
262	1
263	1
264	1
265	1
266	1
267	1
268	1
269	1
270	1
271	1
272	1
273	1
274	1
275	1
276	1
277	1
278	1
279	1
280	1
281	1
282	1
283	1
284	1
285	1
286	1
287	1
288	1
289	1
290	1
291	1
292	1
293	1
294	1
295	1
296	1
297	1
298	1
299	1
300	1
301	1
302	1
303	1
304	1
305	1
306	1
307	1
308	1
309	1
310	1
311	1
312	1
313	1
314	1
315	1
316	1
317	1
318	1
319	1
320	1
321	1
322	1
323	1
324	1
325	1
326	1
327	1
328	1
329	1
330	1
331	1
332	1
333	1
334	1
335	1
336	1
337	1
338	1
339	1
340	1
341	1
342	1
343	1
344	1
345	1
346	1
347	1
348	1
349	1
350	1
351	1
352	1
353	1
354	1
355	1
356	1
357	1
358	1
359	1
360	1
361	1
362	1
363	1
364	1
365	1
366	1
367	1
368	1
369	1
370	1
371	1
372	1
373	1
374	1
375	1
376	1
377	1
378	1
379	1
380	1
381	1
382	1
383	1
384	1
385	1
386	1
387	1
388	1
389	1
390	1
391	1
392	1
393	1
394	1
395	1
396	1
397	1
398	1
399	1
400	1
401	1
402	1
403	1
404	1
405	1
406	1
407	1
408	1
409	1
410	1
411	1
412	1
413	1
414	1
415	1
416	1
417	1
418	1
419	1
420	1
421	1
422	1
423	1
424	1
425	1
426	1
427	1
428	1
429	1
430	1
431	1
432	1
433	1
434	1
435	1
436	1
437	1
438	1
439	1
DEPOT_SECTION	
	1
	-1
EOF	
